n = 16;
m = 40;

max_len = 10;
word_lens = [ 4, 4, 4, 4, 4, 4, 4, 5, 5, 5, 5, 6, 6, 6, 6, 6, 6, 6, 6, 7, 7, 8, 8, 8, 8, 8, 8, 8, 8, 8, 9, 9, 9, 9, 9, 9, 10, 10, 10, 10 ];
words = [| Y, E, A, R, E, E, E, E, E, E | T, I, M, E, E, E, E, E, E, E | D, A, T, E, E, E, E, E, E, E | W, E, E, K, E, E, E, E, E, E | L, I, S, T, E, E, E, E, E, E | I, D, E, S, E, E, E, E, E, E | R, O, T, A, E, E, E, E, E, E | M, O, N, T, H, E, E, E, E, E | T, A, B, L, E, E, E, E, E, E | H, I, J, R, I, E, E, E, E, E | D, I, A, R, Y, E, E, E, E, E | D, O, C, K, E, T, E, E, E, E | E, V, E, N, T, S, E, E, E, E | E, A, S, T, E, R, E, E, E, E | D, I, W, A, L, I, E, E, E, E | S, Y, S, T, E, M, E, E, E, E | A, G, E, N, D, A, E, E, E, E | T, I, M, I, N, G, E, E, E, E | A, D, V, E, N, T, E, E, E, E | C, A, L, E, N, D, S, E, E, E | E, D, I, T, I, O, N, E, E, E | C, A, L, E, N, D, A, R, E, E | S, C, H, E, D, U, L, E, E, E | C, A, L, E, N, D, E, R, E, E | H, O, L, I, D, A, Y, S, E, E | S, E, M, E, S, T, E, R, E, E | L, U, N, A, T, I, O, N, E, E | E, M, B, O, L, I, S, M, E, E | M, U, H, A, M, M, A, D, E, E | D, E, A, D, L, I, N, E, E, E | L, U, N, I, S, O, L, A, R, E | B, R, O, N, Z, E, A, G, E, E | C, A, L, E, N, D, R, I, C, E | I, T, I, N, E, R, A, R, Y, E | F, O, R, T, N, I, G, H, T, E | P, R, E, C, E, D, I, N, G, E | C, H, R, O, N, O, L, O, G, Y | M, I, L, L, E, N, N, I, U, M | S, C, H, E, D, U, L, I, N, G | U, N, O, F, F, I, C, I, A, L |];
